# Solution for model GasLib-40
# Objective value = 5.5689878355166918e+01
loadshed[innode_1] 0
loadshed[innode_2] 0
loadshed[innode_3] 0
loadshed[innode_4] 0
loadshed[innode_5] 0
loadshed[innode_6] 0
loadshed[innode_7] 0
loadshed[innode_8] 0
loadshed[source_1] -1.0343507505655225e-01
loadshed[source_2] 5.6838705410841683e-02
loadshed[source_3] 3.9886267683399557e-01
loadshed[sink_1] 4.5340285187363549e-01
loadshed[sink_2] 0
loadshed[sink_3] 0
loadshed[sink_4] 0
loadshed[sink_5] 0
loadshed[sink_6] 0
loadshed[sink_7] 0
loadshed[sink_8] 0
loadshed[sink_9] 7.9294320485900349e-02
loadshed[sink_10] 0
loadshed[sink_11] 0
loadshed[sink_12] 1
loadshed[sink_13] 0
loadshed[sink_14] 0
loadshed[sink_15] 0
loadshed[sink_16] 0
loadshed[sink_17] 0
loadshed[sink_18] 0
loadshed[sink_19] 0
loadshed[sink_20] 0
loadshed[sink_21] 1
loadshed[sink_22] 0
loadshed[sink_23] 0
loadshed[sink_24] 8.7254379712837737e-01
loadshed[sink_25] 0
loadshed[sink_26] 0
loadshed[sink_27] 0
loadshed[sink_28] 0
loadshed[sink_29] 0
flow[source_1,sink_3] 1.7444235752543341e+02
flow[innode_1,sink_16] 1.6354166666666970e+01
flow[innode_6,sink_13] 1.9445200264776844e+01
flow[sink_13,sink_14] 3.0910335981101760e+00
flow[sink_14,sink_10] -1.3263133068556272e+01
flow[sink_25,sink_26] 1.1543853948437929e+02
flow[sink_26,sink_9] 0
flow[sink_9,sink_18] -1.5057374133720174e+01
flow[sink_26,sink_4] 9.9084372817712733e+01
flow[sink_4,sink_20] -4.1475748827120128e+01
flow[sink_18,sink_6] -3.1411540800386842e+01
flow[sink_25,innode_8] -1.4173402419209702e+02
flow[sink_6,sink_7] -7.3059014993703386e+01
flow[sink_6,sink_22] 2.5293307526649922e+01
flow[sink_7,sink_24] 2.0844399844629957e+00
flow[sink_22,sink_1] 8.9391408599832545e+00
flow[sink_24,sink_21] 0
flow[sink_21,sink_12] 0
flow[sink_7,sink_5] -9.1497621644833046e+01
flow[sink_5,sink_17] -1.0785178831149972e+02
flow[sink_17,sink_4] -1.2420595497816637e+02
flow[sink_17,sink_8] 0
flow[sink_3,sink_23] 16.3541666666697
flow[sink_8,sink_20] -1.6354166666668334e+01
flow[sink_25,sink_20] 7.4184082160455233e+01
flow[sink_25,sink_15] -8.3687964384180631e+01
flow[sink_15,sink_29] -5.6571194006854910e+01
flow[sink_29,sink_28] 1.6354166666667879e+01
flow[sink_29,sink_2] 5.9825103710659064e+01
flow[sink_2,sink_15] 4.3470937043992393e+01
flow[sink_29,innode_7] -1.4910463105084852e+02
flow[innode_4,sink_19] 9.5033966401903413e+01
flow[sink_19,innode_3] 3.0414645861101675e+01
flow[innode_4,innode_5] 0
flow[sink_27,innode_5] 0
flow[sink_27,sink_19] -1.6354166666679703e+01
flow[sink_10,sink_11] 3.2708333333333641e+01
flow[sink_10,innode_2] -3.1910987207455367e+01
flow[sink_10,innode_3] -3.0414645861101675e+01
flow[innode_6,sink_25] -1.9445200264776844e+01
flow[sink_11,innode_1] 1.6354166666666970e+01
flow[sink_19,innode_2] 3.1910987207455367e+01
flow[source_3,innode_4] 9.5033966401903413e+01
flow[source_2,innode_7] 1.4910463105084852e+02
flow[sink_3,innode_8] 1.4173402419209702e+02
pressure[innode_1] 7.5324853094921153e+01
pressure[innode_2] 7.7163181873132373e+01
pressure[innode_3] 7.7095832083957987e+01
pressure[innode_4] 81.01325
pressure[innode_5] 7.6812051875988885e+01
pressure[innode_6] 7.4961956639143750e+01
pressure[innode_7] 81.01325
pressure[innode_8] 8.0430155838188455e+01
pressure[source_1] 81.01325
pressure[source_2] 81.01325
pressure[source_3] 81.01325
pressure[sink_1] 1.0132500000000002e+00
pressure[sink_2] 7.5509847842395232e+01
pressure[sink_3] 8.0430155838188455e+01
pressure[sink_4] 5.4233844494704755e+01
pressure[sink_5] 4.1452923797826138e+01
pressure[sink_6] 2.39685233866915
pressure[sink_7] 3.3997784681982282e+00
pressure[sink_8] 5.6137042856780717e+01
pressure[sink_9] 1.01325
pressure[sink_10] 75.4765544025247
pressure[sink_11] 7.5324853094921153e+01
pressure[sink_12] 1.01325
pressure[sink_13] 7.4854758499678880e+01
pressure[sink_14] 7.4849226831757221e+01
pressure[sink_15] 75.3679248137868
pressure[sink_16] 7.4303203260103473e+01
pressure[sink_17] 4.9487102451915824e+01
pressure[sink_18] 1.5580706748511850e+00
pressure[sink_19] 7.7163181873132373e+01
pressure[sink_20] 5.7276698280369004e+01
pressure[sink_21] 1.01325
pressure[sink_22] 1.5947031794760667e+00
pressure[sink_23] 8.0265437826528682e+01
pressure[sink_24] 1.01325
pressure[sink_25] 7.4961956639143750e+01
pressure[sink_26] 6.6831688096553620e+01
pressure[sink_27] 7.6812051875988885e+01
pressure[sink_28] 7.6730002962493671e+01
pressure[sink_29] 7.7025285236110847e+01
interdiction[source_1,sink_3] 0
interdiction[innode_1,sink_16] 0
interdiction[innode_6,sink_13] 0
interdiction[sink_13,sink_14] 0
interdiction[sink_14,sink_10] 0
interdiction[sink_25,sink_26] 0
interdiction[sink_26,sink_9] 1
interdiction[sink_9,sink_18] 0
interdiction[sink_26,sink_4] 0
interdiction[sink_4,sink_20] 0
interdiction[sink_18,sink_6] 0
interdiction[sink_25,innode_8] 0
interdiction[sink_6,sink_7] 0
interdiction[sink_6,sink_22] 0
interdiction[sink_7,sink_24] 0
interdiction[sink_22,sink_1] 0
interdiction[sink_24,sink_21] 0
interdiction[sink_21,sink_12] 0
interdiction[sink_7,sink_5] 0
interdiction[sink_5,sink_17] 0
interdiction[sink_17,sink_4] 0
interdiction[sink_17,sink_8] 1
interdiction[sink_3,sink_23] 0
interdiction[sink_8,sink_20] 0
interdiction[sink_25,sink_20] 0
interdiction[sink_25,sink_15] 0
interdiction[sink_15,sink_29] 0
interdiction[sink_29,sink_28] 0
interdiction[sink_29,sink_2] 0
interdiction[sink_2,sink_15] 0
interdiction[sink_29,innode_7] 0
interdiction[innode_4,sink_19] 0
interdiction[sink_19,innode_3] 0
interdiction[innode_4,innode_5] 1
interdiction[sink_27,innode_5] 0
interdiction[sink_27,sink_19] 0
interdiction[sink_10,sink_11] 0
interdiction[sink_10,innode_2] 0
interdiction[sink_10,innode_3] 0
interdiction[innode_6,sink_25] 0
interdiction[sink_11,innode_1] 0
interdiction[sink_19,innode_2] 0
interdiction[source_3,innode_4] 0
interdiction[source_2,innode_7] 0
interdiction[sink_3,innode_8] 0
WCcheckFlow[source_1,sink_3] 39
WCcheckFlow[innode_1,sink_16] 1
WCcheckFlow[innode_6,sink_13] 13
WCcheckFlow[sink_13,sink_14] 12
WCcheckFlow[sink_14,sink_10] 11
WCcheckFlow[sink_25,sink_26] 15
WCcheckFlow[sink_26,sink_9] 0
WCcheckFlow[sink_9,sink_18] -1
WCcheckFlow[sink_26,sink_4] 14
WCcheckFlow[sink_4,sink_20] 2
WCcheckFlow[sink_18,sink_6] -2
WCcheckFlow[sink_25,innode_8] -36
WCcheckFlow[sink_6,sink_7] -5
WCcheckFlow[sink_6,sink_22] 2
WCcheckFlow[sink_7,sink_24] 3
WCcheckFlow[sink_22,sink_1] 1
WCcheckFlow[sink_24,sink_21] 2
WCcheckFlow[sink_21,sink_12] 1
WCcheckFlow[sink_7,sink_5] -9
WCcheckFlow[sink_5,sink_17] -10
WCcheckFlow[sink_17,sink_4] -11
WCcheckFlow[sink_17,sink_8] 0
WCcheckFlow[sink_3,sink_23] 1
WCcheckFlow[sink_8,sink_20] -1
WCcheckFlow[sink_25,sink_20] 0
WCcheckFlow[sink_25,sink_15] 6
WCcheckFlow[sink_15,sink_29] 5
WCcheckFlow[sink_29,sink_28] 1
WCcheckFlow[sink_29,sink_2] 1
WCcheckFlow[sink_2,sink_15] 0
WCcheckFlow[sink_29,innode_7] 2
WCcheckFlow[innode_4,sink_19] -2
WCcheckFlow[sink_19,innode_3] -5
WCcheckFlow[innode_4,innode_5] 0
WCcheckFlow[sink_27,innode_5] 1
WCcheckFlow[sink_27,sink_19] -2
WCcheckFlow[sink_10,sink_11] 3
WCcheckFlow[sink_10,innode_2] 1
WCcheckFlow[sink_10,innode_3] 6
WCcheckFlow[innode_6,sink_25] -14
WCcheckFlow[sink_11,innode_1] 2
WCcheckFlow[sink_19,innode_2] 0
WCcheckFlow[source_3,innode_4] -1
WCcheckFlow[source_2,innode_7] -1
WCcheckFlow[sink_3,innode_8] 37
